decision_x1=[0,2];
decision_x2=[0,2];
decision_x3=[0,2];
decision_x4=[0,2];
decision_x5=[0,2];
decision_x6=[0,2];
decision_x7=[0,2];
decision_x8=[0,2];
decision_x9=[0,2];
decision_x10=[0,2];
decision_x11=[0,2];
decision_x12=[0,2];
random_y1=[0,2];
random_y2=[0,2];
random_y3=[0,2];
random_y4=[0,2];
random_y5=[0,2];
random_y6=[0,2];
random_y7=[0,2];
random_y8=[0,2];
random_y9=[0,2];
random_y10=[0,2];
random_y11=[0,2];
random_y12=[0,2];
constraint_x3_x2=[
0,0,48|
0,1,73|
0,2,72|
1,0,58|
1,1,58|
1,2,2.5|
2,0,91|
2,1,42|
2,2,42|
];
constraint_x4_x2=[
0,0,92|
0,1,55|
0,2,55|
1,0,25|
1,1,18|
1,2,76|
2,0,38|
2,1,68|
2,2,87|
];
constraint_x5_x1=[
0,0,79|
0,1,90|
0,2,4.3|
1,0,6.9|
1,1,31|
1,2,77|
2,0,65|
2,1,39|
2,2,84|
];
constraint_x5_x2=[
0,0,37|
0,1,38|
0,2,27|
1,0,70|
1,1,49|
1,2,82|
2,0,44|
2,1,18|
2,2,54|
];
constraint_x5_x3=[
0,0,50|
0,1,3.8|
0,2,24|
1,0,78|
1,1,43|
1,2,79|
2,0,79|
2,1,37|
2,2,41|
];
constraint_x5_x4=[
0,0,24|
0,1,66|
0,2,19|
1,0,28|
1,1,65|
1,2,35|
2,0,99|
2,1,25|
2,2,50|
];
constraint_x6_x1=[
0,0,11|
0,1,60|
0,2,85|
1,0,66|
1,1,35|
1,2,20|
2,0,88|
2,1,32|
2,2,9.1|
];
constraint_x6_x4=[
0,0,45|
0,1,47|
0,2,96|
1,0,35|
1,1,97|
1,2,40|
2,0,79|
2,1,52|
2,2,52|
];
constraint_x7_x2=[
0,0,69|
0,1,95|
0,2,12|
1,0,39|
1,1,73|
1,2,19|
2,0,59|
2,1,60|
2,2,45|
];
constraint_x7_x3=[
0,0,50|
0,1,73|
0,2,65|
1,0,93|
1,1,79|
1,2,26|
2,0,29|
2,1,38|
2,2,65|
];
constraint_x7_x6=[
0,0,27|
0,1,98|
0,2,67|
1,0,1.7|
1,1,33|
1,2,3.4|
2,0,63|
2,1,94|
2,2,23|
];
constraint_x8_x2=[
0,0,32|
0,1,4.6|
0,2,30|
1,0,66|
1,1,29|
1,2,13|
2,0,73|
2,1,68|
2,2,65|
];
constraint_x8_x4=[
0,0,96|
0,1,13|
0,2,39|
1,0,73|
1,1,11|
1,2,29|
2,0,48|
2,1,66|
2,2,90|
];
constraint_x8_x5=[
0,0,44|
0,1,39|
0,2,50|
1,0,62|
1,1,98|
1,2,87|
2,0,7.2|
2,1,33|
2,2,19|
];
constraint_x8_x6=[
0,0,35|
0,1,57|
0,2,81|
1,0,37|
1,1,29|
1,2,14|
2,0,39|
2,1,5.5|
2,2,79|
];
constraint_x9_x1=[
0,0,24|
0,1,33|
0,2,37|
1,0,58|
1,1,57|
1,2,66|
2,0,49|
2,1,67|
2,2,99|
];
constraint_x9_x2=[
0,0,96|
0,1,30|
0,2,72|
1,0,27|
1,1,76|
1,2,45|
2,0,22|
2,1,48|
2,2,20|
];
constraint_x9_x3=[
0,0,88|
0,1,16|
0,2,82|
1,0,29|
1,1,41|
1,2,5.3|
2,0,24|
2,1,75|
2,2,98|
];
constraint_x9_x4=[
0,0,20|
0,1,16|
0,2,70|
1,0,11|
1,1,68|
1,2,75|
2,0,83|
2,1,19|
2,2,49|
];
constraint_x9_x7=[
0,0,31|
0,1,18|
0,2,70|
1,0,79|
1,1,28|
1,2,63|
2,0,26|
2,1,67|
2,2,37|
];
constraint_x9_x8=[
0,0,11|
0,1,74|
0,2,87|
1,0,85|
1,1,98|
1,2,90|
2,0,56|
2,1,44|
2,2,29|
];
constraint_x10_x1=[
0,0,57|
0,1,52|
0,2,9.1|
1,0,38|
1,1,20|
1,2,28|
2,0,90|
2,1,19|
2,2,70|
];
constraint_x10_x2=[
0,0,59|
0,1,60|
0,2,40|
1,0,53|
1,1,69|
1,2,79|
2,0,46|
2,1,95|
2,2,55|
];
constraint_x10_x4=[
0,0,81|
0,1,51|
0,2,66|
1,0,82|
1,1,45|
1,2,41|
2,0,39|
2,1,29|
2,2,73|
];
constraint_x10_x7=[
0,0,30|
0,1,75|
0,2,62|
1,0,94|
1,1,95|
1,2,96|
2,0,31|
2,1,40|
2,2,0.8|
];
constraint_x10_x9=[
0,0,19|
0,1,84|
0,2,76|
1,0,15|
1,1,69|
1,2,75|
2,0,88|
2,1,61|
2,2,1|
];
constraint_x11_x1=[
0,0,26|
0,1,72|
0,2,53|
1,0,7|
1,1,84|
1,2,28|
2,0,89|
2,1,61|
2,2,4.3|
];
constraint_x11_x2=[
0,0,48|
0,1,57|
0,2,67|
1,0,16|
1,1,56|
1,2,64|
2,0,65|
2,1,95|
2,2,1.1|
];
constraint_x11_x5=[
0,0,68|
0,1,32|
0,2,87|
1,0,69|
1,1,26|
1,2,90|
2,0,82|
2,1,45|
2,2,97|
];
constraint_x11_x6=[
0,0,78|
0,1,25|
0,2,96|
1,0,2.4|
1,1,15|
1,2,36|
2,0,4.4|
2,1,39|
2,2,8.9|
];
constraint_x12_x4=[
0,0,27|
0,1,14|
0,2,78|
1,0,23|
1,1,15|
1,2,24|
2,0,56|
2,1,58|
2,2,44|
];
constraint_x12_x8=[
0,0,60|
0,1,34|
0,2,82|
1,0,50|
1,1,60|
1,2,19|
2,0,8|
2,1,8.2|
2,2,73|
];
constraint_x12_x10=[
0,0,31|
0,1,80|
0,2,72|
1,0,74|
1,1,71|
1,2,61|
2,0,45|
2,1,63|
2,2,11|
];
constraint_x1_y1=[
0,0,44|
0,1,0.83|
0,2,63|
1,0,64|
1,1,65|
1,2,90|
2,0,18|
2,1,48|
2,2,26|
];
constraint_x2_y2=[
0,0,90|
0,1,86|
0,2,4.3|
1,0,1.8|
1,1,92|
1,2,62|
2,0,93|
2,1,37|
2,2,68|
];
constraint_x3_y3=[
0,0,20|
0,1,85|
0,2,30|
1,0,23|
1,1,68|
1,2,89|
2,0,35|
2,1,21|
2,2,77|
];
constraint_x4_y4=[
0,0,71|
0,1,96|
0,2,17|
1,0,63|
1,1,1e+02|
1,2,58|
2,0,28|
2,1,56|
2,2,36|
];
constraint_x5_y5=[
0,0,74|
0,1,54|
0,2,99|
1,0,31|
1,1,3.6|
1,2,68|
2,0,33|
2,1,23|
2,2,15|
];
constraint_x6_y6=[
0,0,21|
0,1,62|
0,2,28|
1,0,58|
1,1,29|
1,2,7.3|
2,0,72|
2,1,55|
2,2,23|
];
constraint_x7_y7=[
0,0,64|
0,1,85|
0,2,32|
1,0,5.4|
1,1,83|
1,2,18|
2,0,78|
2,1,33|
2,2,61|
];
constraint_x8_y8=[
0,0,53|
0,1,76|
0,2,52|
1,0,63|
1,1,5.9|
1,2,39|
2,0,92|
2,1,56|
2,2,38|
];
constraint_x9_y9=[
0,0,43|
0,1,81|
0,2,53|
1,0,57|
1,1,22|
1,2,4|
2,0,31|
2,1,30|
2,2,15|
];
constraint_x10_y10=[
0,0,23|
0,1,37|
0,2,34|
1,0,39|
1,1,50|
1,2,66|
2,0,13|
2,1,73|
2,2,67|
];
constraint_x11_y11=[
0,0,37|
0,1,4.7|
0,2,9.3|
1,0,24|
1,1,56|
1,2,1.3|
2,0,35|
2,1,33|
2,2,60|
];
constraint_x12_y12=[
0,0,64|
0,1,22|
0,2,63|
1,0,12|
1,1,98|
1,2,78|
2,0,25|
2,1,45|
2,2,63|
];
initial_distribution_y1=[0.84,0.12,0.035];
initial_distribution_y2=[0.4,0.31,0.29];
initial_distribution_y3=[0.34,0.47,0.19];
initial_distribution_y4=[0.6,0.2,0.2];
initial_distribution_y5=[0.13,0.55,0.33];
initial_distribution_y6=[0.19,0.54,0.26];
initial_distribution_y7=[0.34,0.34,0.32];
initial_distribution_y8=[0.45,0.41,0.14];
initial_distribution_y9=[0.22,0.34,0.43];
initial_distribution_y10=[0.17,0.3,0.52];
initial_distribution_y11=[0.46,0.33,0.21];
initial_distribution_y12=[0.45,0.29,0.26];
transition_y1=[
0.45,0.29,0.26|
0.22,0.11,0.66|
0.049,0.57,0.38|
];
transition_y2=[
0.33,0.035,0.63|
0.43,0.25,0.33|
0.2,0.46,0.35|
];
transition_y3=[
0.22,0.73,0.055|
0.37,0.25,0.38|
0.38,0.34,0.29|
];
transition_y4=[
0.44,0.43,0.13|
0.11,0.071,0.81|
0.38,0.27,0.35|
];
transition_y5=[
0.18,0.43,0.38|
0.41,0.46,0.13|
0.78,0.2,0.017|
];
transition_y6=[
0.34,0.35,0.31|
0.38,0.22,0.4|
0.29,0.4,0.31|
];
transition_y7=[
0.078,0.071,0.85|
0.12,0.19,0.69|
0.19,0.44,0.38|
];
transition_y8=[
0.059,0.27,0.67|
0.28,0.31,0.41|
0.22,0.53,0.26|
];
transition_y9=[
0.41,0.12,0.48|
0.62,0.22,0.16|
0.26,0.33,0.42|
];
transition_y10=[
0.12,0.49,0.39|
0.38,0.31,0.3|
0.35,0.32,0.33|
];
transition_y11=[
0.32,0.062,0.62|
0.27,0.45,0.28|
0.057,0.29,0.65|
];
transition_y12=[
0.45,0.043,0.51|
0.13,0.43,0.44|
0.34,0.22,0.44|
];
